
  12    4
  10   10   10   10

   0   0   0   0   0   5 2 3 7 8 11 
   1  10  10  10  10   2 6 5 
   4  10  10  10  10   1 4 
   9  10  10  10  10   2 10 9 
   2  10  10  10  10   1 10 
   9  10  10  10  10   1 9 
   9  10  10  10  10   1 10 
   3  10  10  10  10   1 9 
   7  10  10  10  10   1 12
   6  10  10  10  10   1 12
   3  10  10  10  10   1 12
   0   0   0   0   0   0 
